\* Service_Selection_Problem *\
Minimize
OBJ: data_cleaner_aws_us_east_1_1_data_puller_aws_eu_central_1_1
 + data_extractor_aws_us_east_1_1_data_puller_aws_eu_central_1_1
 + data_normalizer_aws_us_east_1_1_data_puller_aws_eu_central_1_1
 + data_puller_aws_eu_central_1_1_data_cleaner_aws_us_east_1_1
 + data_puller_aws_eu_central_1_1_data_extractor_aws_us_east_1_1
 + data_puller_aws_eu_central_1_1_data_normalizer_aws_us_east_1_1
 + data_puller_aws_eu_central_1_1_data_puller_aws_us_east_1_1
 + data_puller_aws_eu_central_1_1_db_elastic_aws_us_east_1_1
 + data_puller_aws_eu_central_1_1_db_sql_aws_us_east_1_1
 + data_puller_aws_eu_central_1_1_model_evaluator_aws_us_east_1_1
 + data_puller_aws_eu_central_1_1_model_trainer_aws_us_east_1_1
 + data_puller_aws_eu_central_1_1_pub_sub_stream_aws_us_east_1_1
 + data_puller_aws_eu_central_1_1_storage_artifacts_aws_us_east_1_1
 + data_puller_aws_eu_central_1_1_storage_images_aws_us_east_1_1
 + data_puller_aws_eu_central_1_1_storage_model_aws_us_east_1_1
 + data_puller_aws_us_east_1_1_data_puller_aws_eu_central_1_1
 + db_elastic_aws_us_east_1_1_data_puller_aws_eu_central_1_1
 + db_sql_aws_us_east_1_1_data_puller_aws_eu_central_1_1
 + model_evaluator_aws_us_east_1_1_data_puller_aws_eu_central_1_1
 + model_trainer_aws_us_east_1_1_data_puller_aws_eu_central_1_1
 + pub_sub_stream_aws_us_east_1_1_data_puller_aws_eu_central_1_1
 + storage_artifacts_aws_us_east_1_1_data_puller_aws_eu_central_1_1
 + storage_images_aws_us_east_1_1_data_puller_aws_eu_central_1_1
 + storage_model_aws_us_east_1_1_data_puller_aws_eu_central_1_1
Subject To
_C1: data_puller_aws_eu_central_1_1_pub_sub_stream_aws_us_east_1_1 = 29277
_C10: model_trainer_aws_us_east_1_1_storage_artifacts_aws_us_east_1_1 = 29277
_C11: model_trainer_aws_us_east_1_1_storage_images_aws_us_east_1_1 = 29277
_C12: model_evaluator_aws_us_east_1_1_storage_model_aws_us_east_1_1 = 29277
_C13: model_evaluator_aws_us_east_1_1_storage_artifacts_aws_us_east_1_1
 = 29277
_C14: model_evaluator_aws_us_east_1_1_db_elastic_aws_us_east_1_1 = 29277
_C15: model_evaluator_aws_us_east_1_1_db_sql_aws_us_east_1_1 = 29277
_C16: data_cleaner_aws_us_east_1_1_data_puller_aws_eu_central_1_1
 + data_extractor_aws_us_east_1_1_data_puller_aws_eu_central_1_1
 + data_normalizer_aws_us_east_1_1_data_puller_aws_eu_central_1_1
 + data_puller_aws_eu_central_1_1_data_puller_aws_eu_central_1_1
 + data_puller_aws_us_east_1_1_data_puller_aws_eu_central_1_1
 + db_elastic_aws_us_east_1_1_data_puller_aws_eu_central_1_1
 + db_sql_aws_us_east_1_1_data_puller_aws_eu_central_1_1
 + model_evaluator_aws_us_east_1_1_data_puller_aws_eu_central_1_1
 + model_trainer_aws_us_east_1_1_data_puller_aws_eu_central_1_1
 + pub_sub_stream_aws_us_east_1_1_data_puller_aws_eu_central_1_1
 + storage_artifacts_aws_us_east_1_1_data_puller_aws_eu_central_1_1
 + storage_images_aws_us_east_1_1_data_puller_aws_eu_central_1_1
 + storage_model_aws_us_east_1_1_data_puller_aws_eu_central_1_1 <= 30000
_C17: data_cleaner_aws_us_east_1_1_data_puller_aws_us_east_1_1
 + data_extractor_aws_us_east_1_1_data_puller_aws_us_east_1_1
 + data_normalizer_aws_us_east_1_1_data_puller_aws_us_east_1_1
 + data_puller_aws_eu_central_1_1_data_puller_aws_us_east_1_1
 + data_puller_aws_us_east_1_1_data_puller_aws_us_east_1_1
 + db_elastic_aws_us_east_1_1_data_puller_aws_us_east_1_1
 + db_sql_aws_us_east_1_1_data_puller_aws_us_east_1_1
 + model_evaluator_aws_us_east_1_1_data_puller_aws_us_east_1_1
 + model_trainer_aws_us_east_1_1_data_puller_aws_us_east_1_1
 + pub_sub_stream_aws_us_east_1_1_data_puller_aws_us_east_1_1
 + storage_artifacts_aws_us_east_1_1_data_puller_aws_us_east_1_1
 + storage_images_aws_us_east_1_1_data_puller_aws_us_east_1_1
 + storage_model_aws_us_east_1_1_data_puller_aws_us_east_1_1 <= 30000
_C18: data_cleaner_aws_us_east_1_1_pub_sub_stream_aws_us_east_1_1
 + data_extractor_aws_us_east_1_1_pub_sub_stream_aws_us_east_1_1
 + data_normalizer_aws_us_east_1_1_pub_sub_stream_aws_us_east_1_1
 + data_puller_aws_eu_central_1_1_pub_sub_stream_aws_us_east_1_1
 + data_puller_aws_us_east_1_1_pub_sub_stream_aws_us_east_1_1
 + db_elastic_aws_us_east_1_1_pub_sub_stream_aws_us_east_1_1
 + db_sql_aws_us_east_1_1_pub_sub_stream_aws_us_east_1_1
 + model_evaluator_aws_us_east_1_1_pub_sub_stream_aws_us_east_1_1
 + model_trainer_aws_us_east_1_1_pub_sub_stream_aws_us_east_1_1
 + pub_sub_stream_aws_us_east_1_1_pub_sub_stream_aws_us_east_1_1
 + storage_artifacts_aws_us_east_1_1_pub_sub_stream_aws_us_east_1_1
 + storage_images_aws_us_east_1_1_pub_sub_stream_aws_us_east_1_1
 + storage_model_aws_us_east_1_1_pub_sub_stream_aws_us_east_1_1 <= 65000
_C19: data_cleaner_aws_us_east_1_1_data_extractor_aws_us_east_1_1
 + data_extractor_aws_us_east_1_1_data_extractor_aws_us_east_1_1
 + data_normalizer_aws_us_east_1_1_data_extractor_aws_us_east_1_1
 + data_puller_aws_eu_central_1_1_data_extractor_aws_us_east_1_1
 + data_puller_aws_us_east_1_1_data_extractor_aws_us_east_1_1
 + db_elastic_aws_us_east_1_1_data_extractor_aws_us_east_1_1
 + db_sql_aws_us_east_1_1_data_extractor_aws_us_east_1_1
 + model_evaluator_aws_us_east_1_1_data_extractor_aws_us_east_1_1
 + model_trainer_aws_us_east_1_1_data_extractor_aws_us_east_1_1
 + pub_sub_stream_aws_us_east_1_1_data_extractor_aws_us_east_1_1
 + storage_artifacts_aws_us_east_1_1_data_extractor_aws_us_east_1_1
 + storage_images_aws_us_east_1_1_data_extractor_aws_us_east_1_1
 + storage_model_aws_us_east_1_1_data_extractor_aws_us_east_1_1 <= 65000
_C2: data_puller_aws_us_east_1_1_pub_sub_stream_aws_us_east_1_1 = 29277
_C20: data_cleaner_aws_us_east_1_1_data_cleaner_aws_us_east_1_1
 + data_extractor_aws_us_east_1_1_data_cleaner_aws_us_east_1_1
 + data_normalizer_aws_us_east_1_1_data_cleaner_aws_us_east_1_1
 + data_puller_aws_eu_central_1_1_data_cleaner_aws_us_east_1_1
 + data_puller_aws_us_east_1_1_data_cleaner_aws_us_east_1_1
 + db_elastic_aws_us_east_1_1_data_cleaner_aws_us_east_1_1
 + db_sql_aws_us_east_1_1_data_cleaner_aws_us_east_1_1
 + model_evaluator_aws_us_east_1_1_data_cleaner_aws_us_east_1_1
 + model_trainer_aws_us_east_1_1_data_cleaner_aws_us_east_1_1
 + pub_sub_stream_aws_us_east_1_1_data_cleaner_aws_us_east_1_1
 + storage_artifacts_aws_us_east_1_1_data_cleaner_aws_us_east_1_1
 + storage_images_aws_us_east_1_1_data_cleaner_aws_us_east_1_1
 + storage_model_aws_us_east_1_1_data_cleaner_aws_us_east_1_1 <= 65000
_C21: data_cleaner_aws_us_east_1_1_data_normalizer_aws_us_east_1_1
 + data_extractor_aws_us_east_1_1_data_normalizer_aws_us_east_1_1
 + data_normalizer_aws_us_east_1_1_data_normalizer_aws_us_east_1_1
 + data_puller_aws_eu_central_1_1_data_normalizer_aws_us_east_1_1
 + data_puller_aws_us_east_1_1_data_normalizer_aws_us_east_1_1
 + db_elastic_aws_us_east_1_1_data_normalizer_aws_us_east_1_1
 + db_sql_aws_us_east_1_1_data_normalizer_aws_us_east_1_1
 + model_evaluator_aws_us_east_1_1_data_normalizer_aws_us_east_1_1
 + model_trainer_aws_us_east_1_1_data_normalizer_aws_us_east_1_1
 + pub_sub_stream_aws_us_east_1_1_data_normalizer_aws_us_east_1_1
 + storage_artifacts_aws_us_east_1_1_data_normalizer_aws_us_east_1_1
 + storage_images_aws_us_east_1_1_data_normalizer_aws_us_east_1_1
 + storage_model_aws_us_east_1_1_data_normalizer_aws_us_east_1_1 <= 65000
_C22: data_cleaner_aws_us_east_1_1_model_trainer_aws_us_east_1_1
 + data_extractor_aws_us_east_1_1_model_trainer_aws_us_east_1_1
 + data_normalizer_aws_us_east_1_1_model_trainer_aws_us_east_1_1
 + data_puller_aws_eu_central_1_1_model_trainer_aws_us_east_1_1
 + data_puller_aws_us_east_1_1_model_trainer_aws_us_east_1_1
 + db_elastic_aws_us_east_1_1_model_trainer_aws_us_east_1_1
 + db_sql_aws_us_east_1_1_model_trainer_aws_us_east_1_1
 + model_evaluator_aws_us_east_1_1_model_trainer_aws_us_east_1_1
 + model_trainer_aws_us_east_1_1_model_trainer_aws_us_east_1_1
 + pub_sub_stream_aws_us_east_1_1_model_trainer_aws_us_east_1_1
 + storage_artifacts_aws_us_east_1_1_model_trainer_aws_us_east_1_1
 + storage_images_aws_us_east_1_1_model_trainer_aws_us_east_1_1
 + storage_model_aws_us_east_1_1_model_trainer_aws_us_east_1_1 <= 65000
_C23: data_cleaner_aws_us_east_1_1_model_evaluator_aws_us_east_1_1
 + data_extractor_aws_us_east_1_1_model_evaluator_aws_us_east_1_1
 + data_normalizer_aws_us_east_1_1_model_evaluator_aws_us_east_1_1
 + data_puller_aws_eu_central_1_1_model_evaluator_aws_us_east_1_1
 + data_puller_aws_us_east_1_1_model_evaluator_aws_us_east_1_1
 + db_elastic_aws_us_east_1_1_model_evaluator_aws_us_east_1_1
 + db_sql_aws_us_east_1_1_model_evaluator_aws_us_east_1_1
 + model_evaluator_aws_us_east_1_1_model_evaluator_aws_us_east_1_1
 + model_trainer_aws_us_east_1_1_model_evaluator_aws_us_east_1_1
 + pub_sub_stream_aws_us_east_1_1_model_evaluator_aws_us_east_1_1
 + storage_artifacts_aws_us_east_1_1_model_evaluator_aws_us_east_1_1
 + storage_images_aws_us_east_1_1_model_evaluator_aws_us_east_1_1
 + storage_model_aws_us_east_1_1_model_evaluator_aws_us_east_1_1 <= 65000
_C24: data_cleaner_aws_us_east_1_1_storage_images_aws_us_east_1_1
 + data_extractor_aws_us_east_1_1_storage_images_aws_us_east_1_1
 + data_normalizer_aws_us_east_1_1_storage_images_aws_us_east_1_1
 + data_puller_aws_eu_central_1_1_storage_images_aws_us_east_1_1
 + data_puller_aws_us_east_1_1_storage_images_aws_us_east_1_1
 + db_elastic_aws_us_east_1_1_storage_images_aws_us_east_1_1
 + db_sql_aws_us_east_1_1_storage_images_aws_us_east_1_1
 + model_evaluator_aws_us_east_1_1_storage_images_aws_us_east_1_1
 + model_trainer_aws_us_east_1_1_storage_images_aws_us_east_1_1
 + pub_sub_stream_aws_us_east_1_1_storage_images_aws_us_east_1_1
 + storage_artifacts_aws_us_east_1_1_storage_images_aws_us_east_1_1
 + storage_images_aws_us_east_1_1_storage_images_aws_us_east_1_1
 + storage_model_aws_us_east_1_1_storage_images_aws_us_east_1_1 <= 65000
_C25: data_cleaner_aws_us_east_1_1_storage_model_aws_us_east_1_1
 + data_extractor_aws_us_east_1_1_storage_model_aws_us_east_1_1
 + data_normalizer_aws_us_east_1_1_storage_model_aws_us_east_1_1
 + data_puller_aws_eu_central_1_1_storage_model_aws_us_east_1_1
 + data_puller_aws_us_east_1_1_storage_model_aws_us_east_1_1
 + db_elastic_aws_us_east_1_1_storage_model_aws_us_east_1_1
 + db_sql_aws_us_east_1_1_storage_model_aws_us_east_1_1
 + model_evaluator_aws_us_east_1_1_storage_model_aws_us_east_1_1
 + model_trainer_aws_us_east_1_1_storage_model_aws_us_east_1_1
 + pub_sub_stream_aws_us_east_1_1_storage_model_aws_us_east_1_1
 + storage_artifacts_aws_us_east_1_1_storage_model_aws_us_east_1_1
 + storage_images_aws_us_east_1_1_storage_model_aws_us_east_1_1
 + storage_model_aws_us_east_1_1_storage_model_aws_us_east_1_1 <= 65000
_C26: data_cleaner_aws_us_east_1_1_storage_artifacts_aws_us_east_1_1
 + data_extractor_aws_us_east_1_1_storage_artifacts_aws_us_east_1_1
 + data_normalizer_aws_us_east_1_1_storage_artifacts_aws_us_east_1_1
 + data_puller_aws_eu_central_1_1_storage_artifacts_aws_us_east_1_1
 + data_puller_aws_us_east_1_1_storage_artifacts_aws_us_east_1_1
 + db_elastic_aws_us_east_1_1_storage_artifacts_aws_us_east_1_1
 + db_sql_aws_us_east_1_1_storage_artifacts_aws_us_east_1_1
 + model_evaluator_aws_us_east_1_1_storage_artifacts_aws_us_east_1_1
 + model_trainer_aws_us_east_1_1_storage_artifacts_aws_us_east_1_1
 + pub_sub_stream_aws_us_east_1_1_storage_artifacts_aws_us_east_1_1
 + storage_artifacts_aws_us_east_1_1_storage_artifacts_aws_us_east_1_1
 + storage_images_aws_us_east_1_1_storage_artifacts_aws_us_east_1_1
 + storage_model_aws_us_east_1_1_storage_artifacts_aws_us_east_1_1 <= 280000
_C27: data_cleaner_aws_us_east_1_1_db_elastic_aws_us_east_1_1
 + data_extractor_aws_us_east_1_1_db_elastic_aws_us_east_1_1
 + data_normalizer_aws_us_east_1_1_db_elastic_aws_us_east_1_1
 + data_puller_aws_eu_central_1_1_db_elastic_aws_us_east_1_1
 + data_puller_aws_us_east_1_1_db_elastic_aws_us_east_1_1
 + db_elastic_aws_us_east_1_1_db_elastic_aws_us_east_1_1
 + db_sql_aws_us_east_1_1_db_elastic_aws_us_east_1_1
 + model_evaluator_aws_us_east_1_1_db_elastic_aws_us_east_1_1
 + model_trainer_aws_us_east_1_1_db_elastic_aws_us_east_1_1
 + pub_sub_stream_aws_us_east_1_1_db_elastic_aws_us_east_1_1
 + storage_artifacts_aws_us_east_1_1_db_elastic_aws_us_east_1_1
 + storage_images_aws_us_east_1_1_db_elastic_aws_us_east_1_1
 + storage_model_aws_us_east_1_1_db_elastic_aws_us_east_1_1 <= 65000
_C28: data_cleaner_aws_us_east_1_1_db_sql_aws_us_east_1_1
 + data_extractor_aws_us_east_1_1_db_sql_aws_us_east_1_1
 + data_normalizer_aws_us_east_1_1_db_sql_aws_us_east_1_1
 + data_puller_aws_eu_central_1_1_db_sql_aws_us_east_1_1
 + data_puller_aws_us_east_1_1_db_sql_aws_us_east_1_1
 + db_elastic_aws_us_east_1_1_db_sql_aws_us_east_1_1
 + db_sql_aws_us_east_1_1_db_sql_aws_us_east_1_1
 + model_evaluator_aws_us_east_1_1_db_sql_aws_us_east_1_1
 + model_trainer_aws_us_east_1_1_db_sql_aws_us_east_1_1
 + pub_sub_stream_aws_us_east_1_1_db_sql_aws_us_east_1_1
 + storage_artifacts_aws_us_east_1_1_db_sql_aws_us_east_1_1
 + storage_images_aws_us_east_1_1_db_sql_aws_us_east_1_1
 + storage_model_aws_us_east_1_1_db_sql_aws_us_east_1_1 <= 65000
_C3: pub_sub_stream_aws_us_east_1_1_data_extractor_aws_us_east_1_1 = 29277
_C4: data_extractor_aws_us_east_1_1_data_cleaner_aws_us_east_1_1 = 29277
_C5: data_cleaner_aws_us_east_1_1_data_normalizer_aws_us_east_1_1 = 29277
_C6: data_cleaner_aws_us_east_1_1_storage_artifacts_aws_us_east_1_1 = 29277
_C7: data_normalizer_aws_us_east_1_1_model_trainer_aws_us_east_1_1 = 29277
_C8: data_normalizer_aws_us_east_1_1_storage_artifacts_aws_us_east_1_1 = 29277
_C9: model_trainer_aws_us_east_1_1_model_evaluator_aws_us_east_1_1 = 29277
Bounds
data_cleaner_aws_us_east_1_1_data_cleaner_aws_us_east_1_1 = 0
data_cleaner_aws_us_east_1_1_data_extractor_aws_us_east_1_1 = 0
data_cleaner_aws_us_east_1_1_data_normalizer_aws_us_east_1_1 <= 29277
data_cleaner_aws_us_east_1_1_data_puller_aws_eu_central_1_1 = 0
data_cleaner_aws_us_east_1_1_data_puller_aws_us_east_1_1 = 0
data_cleaner_aws_us_east_1_1_db_elastic_aws_us_east_1_1 = 0
data_cleaner_aws_us_east_1_1_db_sql_aws_us_east_1_1 = 0
data_cleaner_aws_us_east_1_1_model_evaluator_aws_us_east_1_1 = 0
data_cleaner_aws_us_east_1_1_model_trainer_aws_us_east_1_1 = 0
data_cleaner_aws_us_east_1_1_pub_sub_stream_aws_us_east_1_1 = 0
data_cleaner_aws_us_east_1_1_storage_artifacts_aws_us_east_1_1 <= 29277
data_cleaner_aws_us_east_1_1_storage_images_aws_us_east_1_1 = 0
data_cleaner_aws_us_east_1_1_storage_model_aws_us_east_1_1 = 0
data_extractor_aws_us_east_1_1_data_cleaner_aws_us_east_1_1 <= 29277
data_extractor_aws_us_east_1_1_data_extractor_aws_us_east_1_1 = 0
data_extractor_aws_us_east_1_1_data_normalizer_aws_us_east_1_1 = 0
data_extractor_aws_us_east_1_1_data_puller_aws_eu_central_1_1 = 0
data_extractor_aws_us_east_1_1_data_puller_aws_us_east_1_1 = 0
data_extractor_aws_us_east_1_1_db_elastic_aws_us_east_1_1 = 0
data_extractor_aws_us_east_1_1_db_sql_aws_us_east_1_1 = 0
data_extractor_aws_us_east_1_1_model_evaluator_aws_us_east_1_1 = 0
data_extractor_aws_us_east_1_1_model_trainer_aws_us_east_1_1 = 0
data_extractor_aws_us_east_1_1_pub_sub_stream_aws_us_east_1_1 = 0
data_extractor_aws_us_east_1_1_storage_artifacts_aws_us_east_1_1 = 0
data_extractor_aws_us_east_1_1_storage_images_aws_us_east_1_1 = 0
data_extractor_aws_us_east_1_1_storage_model_aws_us_east_1_1 = 0
data_normalizer_aws_us_east_1_1_data_cleaner_aws_us_east_1_1 = 0
data_normalizer_aws_us_east_1_1_data_extractor_aws_us_east_1_1 = 0
data_normalizer_aws_us_east_1_1_data_normalizer_aws_us_east_1_1 = 0
data_normalizer_aws_us_east_1_1_data_puller_aws_eu_central_1_1 = 0
data_normalizer_aws_us_east_1_1_data_puller_aws_us_east_1_1 = 0
data_normalizer_aws_us_east_1_1_db_elastic_aws_us_east_1_1 = 0
data_normalizer_aws_us_east_1_1_db_sql_aws_us_east_1_1 = 0
data_normalizer_aws_us_east_1_1_model_evaluator_aws_us_east_1_1 = 0
data_normalizer_aws_us_east_1_1_model_trainer_aws_us_east_1_1 <= 29277
data_normalizer_aws_us_east_1_1_pub_sub_stream_aws_us_east_1_1 = 0
data_normalizer_aws_us_east_1_1_storage_artifacts_aws_us_east_1_1 <= 29277
data_normalizer_aws_us_east_1_1_storage_images_aws_us_east_1_1 = 0
data_normalizer_aws_us_east_1_1_storage_model_aws_us_east_1_1 = 0
data_puller_aws_eu_central_1_1_data_cleaner_aws_us_east_1_1 = 0
data_puller_aws_eu_central_1_1_data_extractor_aws_us_east_1_1 = 0
data_puller_aws_eu_central_1_1_data_normalizer_aws_us_east_1_1 = 0
data_puller_aws_eu_central_1_1_data_puller_aws_eu_central_1_1 = 0
data_puller_aws_eu_central_1_1_data_puller_aws_us_east_1_1 = 0
data_puller_aws_eu_central_1_1_db_elastic_aws_us_east_1_1 = 0
data_puller_aws_eu_central_1_1_db_sql_aws_us_east_1_1 = 0
data_puller_aws_eu_central_1_1_model_evaluator_aws_us_east_1_1 = 0
data_puller_aws_eu_central_1_1_model_trainer_aws_us_east_1_1 = 0
data_puller_aws_eu_central_1_1_pub_sub_stream_aws_us_east_1_1 <= 29277
data_puller_aws_eu_central_1_1_storage_artifacts_aws_us_east_1_1 = 0
data_puller_aws_eu_central_1_1_storage_images_aws_us_east_1_1 = 0
data_puller_aws_eu_central_1_1_storage_model_aws_us_east_1_1 = 0
data_puller_aws_us_east_1_1_data_cleaner_aws_us_east_1_1 = 0
data_puller_aws_us_east_1_1_data_extractor_aws_us_east_1_1 = 0
data_puller_aws_us_east_1_1_data_normalizer_aws_us_east_1_1 = 0
data_puller_aws_us_east_1_1_data_puller_aws_eu_central_1_1 = 0
data_puller_aws_us_east_1_1_data_puller_aws_us_east_1_1 = 0
data_puller_aws_us_east_1_1_db_elastic_aws_us_east_1_1 = 0
data_puller_aws_us_east_1_1_db_sql_aws_us_east_1_1 = 0
data_puller_aws_us_east_1_1_model_evaluator_aws_us_east_1_1 = 0
data_puller_aws_us_east_1_1_model_trainer_aws_us_east_1_1 = 0
data_puller_aws_us_east_1_1_pub_sub_stream_aws_us_east_1_1 <= 29277
data_puller_aws_us_east_1_1_storage_artifacts_aws_us_east_1_1 = 0
data_puller_aws_us_east_1_1_storage_images_aws_us_east_1_1 = 0
data_puller_aws_us_east_1_1_storage_model_aws_us_east_1_1 = 0
db_elastic_aws_us_east_1_1_data_cleaner_aws_us_east_1_1 = 0
db_elastic_aws_us_east_1_1_data_extractor_aws_us_east_1_1 = 0
db_elastic_aws_us_east_1_1_data_normalizer_aws_us_east_1_1 = 0
db_elastic_aws_us_east_1_1_data_puller_aws_eu_central_1_1 = 0
db_elastic_aws_us_east_1_1_data_puller_aws_us_east_1_1 = 0
db_elastic_aws_us_east_1_1_db_elastic_aws_us_east_1_1 = 0
db_elastic_aws_us_east_1_1_db_sql_aws_us_east_1_1 = 0
db_elastic_aws_us_east_1_1_model_evaluator_aws_us_east_1_1 = 0
db_elastic_aws_us_east_1_1_model_trainer_aws_us_east_1_1 = 0
db_elastic_aws_us_east_1_1_pub_sub_stream_aws_us_east_1_1 = 0
db_elastic_aws_us_east_1_1_storage_artifacts_aws_us_east_1_1 = 0
db_elastic_aws_us_east_1_1_storage_images_aws_us_east_1_1 = 0
db_elastic_aws_us_east_1_1_storage_model_aws_us_east_1_1 = 0
db_sql_aws_us_east_1_1_data_cleaner_aws_us_east_1_1 = 0
db_sql_aws_us_east_1_1_data_extractor_aws_us_east_1_1 = 0
db_sql_aws_us_east_1_1_data_normalizer_aws_us_east_1_1 = 0
db_sql_aws_us_east_1_1_data_puller_aws_eu_central_1_1 = 0
db_sql_aws_us_east_1_1_data_puller_aws_us_east_1_1 = 0
db_sql_aws_us_east_1_1_db_elastic_aws_us_east_1_1 = 0
db_sql_aws_us_east_1_1_db_sql_aws_us_east_1_1 = 0
db_sql_aws_us_east_1_1_model_evaluator_aws_us_east_1_1 = 0
db_sql_aws_us_east_1_1_model_trainer_aws_us_east_1_1 = 0
db_sql_aws_us_east_1_1_pub_sub_stream_aws_us_east_1_1 = 0
db_sql_aws_us_east_1_1_storage_artifacts_aws_us_east_1_1 = 0
db_sql_aws_us_east_1_1_storage_images_aws_us_east_1_1 = 0
db_sql_aws_us_east_1_1_storage_model_aws_us_east_1_1 = 0
model_evaluator_aws_us_east_1_1_data_cleaner_aws_us_east_1_1 = 0
model_evaluator_aws_us_east_1_1_data_extractor_aws_us_east_1_1 = 0
model_evaluator_aws_us_east_1_1_data_normalizer_aws_us_east_1_1 = 0
model_evaluator_aws_us_east_1_1_data_puller_aws_eu_central_1_1 = 0
model_evaluator_aws_us_east_1_1_data_puller_aws_us_east_1_1 = 0
model_evaluator_aws_us_east_1_1_db_elastic_aws_us_east_1_1 <= 29277
model_evaluator_aws_us_east_1_1_db_sql_aws_us_east_1_1 <= 29277
model_evaluator_aws_us_east_1_1_model_evaluator_aws_us_east_1_1 = 0
model_evaluator_aws_us_east_1_1_model_trainer_aws_us_east_1_1 = 0
model_evaluator_aws_us_east_1_1_pub_sub_stream_aws_us_east_1_1 = 0
model_evaluator_aws_us_east_1_1_storage_artifacts_aws_us_east_1_1 <= 29277
model_evaluator_aws_us_east_1_1_storage_images_aws_us_east_1_1 = 0
model_evaluator_aws_us_east_1_1_storage_model_aws_us_east_1_1 <= 29277
model_trainer_aws_us_east_1_1_data_cleaner_aws_us_east_1_1 = 0
model_trainer_aws_us_east_1_1_data_extractor_aws_us_east_1_1 = 0
model_trainer_aws_us_east_1_1_data_normalizer_aws_us_east_1_1 = 0
model_trainer_aws_us_east_1_1_data_puller_aws_eu_central_1_1 = 0
model_trainer_aws_us_east_1_1_data_puller_aws_us_east_1_1 = 0
model_trainer_aws_us_east_1_1_db_elastic_aws_us_east_1_1 = 0
model_trainer_aws_us_east_1_1_db_sql_aws_us_east_1_1 = 0
model_trainer_aws_us_east_1_1_model_evaluator_aws_us_east_1_1 <= 29277
model_trainer_aws_us_east_1_1_model_trainer_aws_us_east_1_1 = 0
model_trainer_aws_us_east_1_1_pub_sub_stream_aws_us_east_1_1 = 0
model_trainer_aws_us_east_1_1_storage_artifacts_aws_us_east_1_1 <= 29277
model_trainer_aws_us_east_1_1_storage_images_aws_us_east_1_1 <= 29277
model_trainer_aws_us_east_1_1_storage_model_aws_us_east_1_1 = 0
pub_sub_stream_aws_us_east_1_1_data_cleaner_aws_us_east_1_1 = 0
pub_sub_stream_aws_us_east_1_1_data_extractor_aws_us_east_1_1 <= 29277
pub_sub_stream_aws_us_east_1_1_data_normalizer_aws_us_east_1_1 = 0
pub_sub_stream_aws_us_east_1_1_data_puller_aws_eu_central_1_1 = 0
pub_sub_stream_aws_us_east_1_1_data_puller_aws_us_east_1_1 = 0
pub_sub_stream_aws_us_east_1_1_db_elastic_aws_us_east_1_1 = 0
pub_sub_stream_aws_us_east_1_1_db_sql_aws_us_east_1_1 = 0
pub_sub_stream_aws_us_east_1_1_model_evaluator_aws_us_east_1_1 = 0
pub_sub_stream_aws_us_east_1_1_model_trainer_aws_us_east_1_1 = 0
pub_sub_stream_aws_us_east_1_1_pub_sub_stream_aws_us_east_1_1 = 0
pub_sub_stream_aws_us_east_1_1_storage_artifacts_aws_us_east_1_1 = 0
pub_sub_stream_aws_us_east_1_1_storage_images_aws_us_east_1_1 = 0
pub_sub_stream_aws_us_east_1_1_storage_model_aws_us_east_1_1 = 0
storage_artifacts_aws_us_east_1_1_data_cleaner_aws_us_east_1_1 = 0
storage_artifacts_aws_us_east_1_1_data_extractor_aws_us_east_1_1 = 0
storage_artifacts_aws_us_east_1_1_data_normalizer_aws_us_east_1_1 = 0
storage_artifacts_aws_us_east_1_1_data_puller_aws_eu_central_1_1 = 0
storage_artifacts_aws_us_east_1_1_data_puller_aws_us_east_1_1 = 0
storage_artifacts_aws_us_east_1_1_db_elastic_aws_us_east_1_1 = 0
storage_artifacts_aws_us_east_1_1_db_sql_aws_us_east_1_1 = 0
storage_artifacts_aws_us_east_1_1_model_evaluator_aws_us_east_1_1 = 0
storage_artifacts_aws_us_east_1_1_model_trainer_aws_us_east_1_1 = 0
storage_artifacts_aws_us_east_1_1_pub_sub_stream_aws_us_east_1_1 = 0
storage_artifacts_aws_us_east_1_1_storage_artifacts_aws_us_east_1_1 = 0
storage_artifacts_aws_us_east_1_1_storage_images_aws_us_east_1_1 = 0
storage_artifacts_aws_us_east_1_1_storage_model_aws_us_east_1_1 = 0
storage_images_aws_us_east_1_1_data_cleaner_aws_us_east_1_1 = 0
storage_images_aws_us_east_1_1_data_extractor_aws_us_east_1_1 = 0
storage_images_aws_us_east_1_1_data_normalizer_aws_us_east_1_1 = 0
storage_images_aws_us_east_1_1_data_puller_aws_eu_central_1_1 = 0
storage_images_aws_us_east_1_1_data_puller_aws_us_east_1_1 = 0
storage_images_aws_us_east_1_1_db_elastic_aws_us_east_1_1 = 0
storage_images_aws_us_east_1_1_db_sql_aws_us_east_1_1 = 0
storage_images_aws_us_east_1_1_model_evaluator_aws_us_east_1_1 = 0
storage_images_aws_us_east_1_1_model_trainer_aws_us_east_1_1 = 0
storage_images_aws_us_east_1_1_pub_sub_stream_aws_us_east_1_1 = 0
storage_images_aws_us_east_1_1_storage_artifacts_aws_us_east_1_1 = 0
storage_images_aws_us_east_1_1_storage_images_aws_us_east_1_1 = 0
storage_images_aws_us_east_1_1_storage_model_aws_us_east_1_1 = 0
storage_model_aws_us_east_1_1_data_cleaner_aws_us_east_1_1 = 0
storage_model_aws_us_east_1_1_data_extractor_aws_us_east_1_1 = 0
storage_model_aws_us_east_1_1_data_normalizer_aws_us_east_1_1 = 0
storage_model_aws_us_east_1_1_data_puller_aws_eu_central_1_1 = 0
storage_model_aws_us_east_1_1_data_puller_aws_us_east_1_1 = 0
storage_model_aws_us_east_1_1_db_elastic_aws_us_east_1_1 = 0
storage_model_aws_us_east_1_1_db_sql_aws_us_east_1_1 = 0
storage_model_aws_us_east_1_1_model_evaluator_aws_us_east_1_1 = 0
storage_model_aws_us_east_1_1_model_trainer_aws_us_east_1_1 = 0
storage_model_aws_us_east_1_1_pub_sub_stream_aws_us_east_1_1 = 0
storage_model_aws_us_east_1_1_storage_artifacts_aws_us_east_1_1 = 0
storage_model_aws_us_east_1_1_storage_images_aws_us_east_1_1 = 0
storage_model_aws_us_east_1_1_storage_model_aws_us_east_1_1 = 0
End
